70 170836
43 21 53 29 61 30 60 50 34 42 6 4 48 40 56 59 64 55 14 12 45 20 47 27 10 66 54 3 31 33 35 17 37 5 7 15 52 38 65 69 22 36 46 28 18 63 26 49 70 39 62 32 11 8 24 13 41 25 57 68 67 51 16 1 19 23 58 2 44 9 
